unsat
(define-fun InvF ((x Int) (y Int) (n Int)) Bool (let ((_let_1 (* (- 1) n))) (and (or (and (not (>= (+ y _let_1) 0)) (>= y 0)) (>= (+ x _let_1) 1) (not (= x (+ (* (- 1) y) n)))) (>= x 1))))
0.09user 0.00system 0:00.10elapsed 100%CPU (0avgtext+0avgdata 27532maxresident)k
0inputs+8outputs (0major+1559minor)pagefaults 0swaps
